DIMENSION: 32
EDGE_WEIGHT_TYPE: EXPLICIT
EDGE_WEIGHT_FORMAT: FULL_MATRIX
EDGE_WEIGHT_SECTION:
32767 32767 32767 32767 56 98 32767 45 32767 25 6 40 32767 32767 32767 32767 44 32767 32767 52 4 32767 32767 5 73 32767 32767 32767 11 32767 32767 32767 
32767 32767 32767 32767 32767 32767 32767 81 55 32767 32767 32767 87 11 32767 35 32767 80 32767 32767 32767 69 32767 32767 32767 32767 32767 41 32767 42 32767 48 
32767 32767 32767 32767 91 32767 89 32767 32767 77 98 32767 32767 32767 32767 32767 32767 32767 32767 32767 68 98 32767 39 32767 38 78 17 32767 58 32767 32767 
32767 32767 32767 32767 32767 80 58 15 32767 32767 32767 52 32767 32767 32767 32767 32767 32767 3 32767 32767 32767 80 48 32767 39 32767 32767 32767 92 36 22 
56 32767 91 32767 32767 32767 72 32767 32767 32767 32767 96 31 32767 32767 90 61 20 32767 32767 94 32767 32767 4 32767 32767 32767 32767 32767 32767 32767 32767 
98 32767 32767 80 32767 32767 32767 32767 32767 32767 32767 32767 32767 32767 32767 32767 32767 32767 32767 32767 32767 38 32767 50 32767 32767 15 32767 32767 40 32767 28 
32767 32767 89 58 72 32767 32767 52 32767 93 32767 32767 32767 32767 11 32767 32767 67 32767 32767 32767 32767 37 32767 3 32767 3 32767 32767 32767 75 53 
45 81 32767 15 32767 32767 52 32767 57 32767 32767 32767 31 76 32767 32767 32767 13 32767 38 32767 32767 20 32767 32767 55 35 32767 98 32767 6 58 
32767 55 32767 32767 32767 32767 32767 57 32767 32767 32767 99 8 32767 32767 32767 17 40 32767 32767 5 77 32767 32767 32767 32767 32767 32767 31 32767 32767 32767 
25 32767 77 32767 32767 32767 93 32767 32767 32767 32767 32767 32767 15 33 25 32767 93 32767 78 32767 32767 32767 32767 13 32767 32767 26 32767 8 63 32767 
6 32767 98 32767 32767 32767 32767 32767 32767 32767 32767 31 32767 32767 32767 32767 32767 32767 32767 32767 32767 32767 32767 32767 1 32767 32767 75 32767 97 32767 32767 
40 32767 32767 52 96 32767 32767 32767 99 32767 31 32767 32767 32767 35 32767 32767 77 99 32767 32767 73 32767 32767 32767 32767 66 32767 32767 32767 32767 37 
32767 87 32767 32767 31 32767 32767 31 8 32767 32767 32767 32767 32767 33 32767 32767 32767 32767 32767 60 32767 32767 32767 32767 60 32767 32 94 32767 32767 32767 
32767 11 32767 32767 32767 32767 32767 76 32767 15 32767 32767 32767 32767 32767 32767 32767 32767 91 32767 9 32767 32767 32767 32767 14 30 94 32767 22 97 32767 
32767 32767 32767 32767 32767 32767 11 32767 32767 33 32767 35 33 32767 32767 32 32767 32767 32767 32767 37 78 32767 51 32767 32767 94 32767 64 32767 45 32767 
32767 35 32767 32767 90 32767 32767 32767 32767 25 32767 32767 32767 32767 32 32767 32767 32767 32767 89 32767 32767 32767 32767 32767 32767 32767 62 20 32767 32767 32767 
44 32767 32767 32767 61 32767 32767 32767 17 32767 32767 32767 32767 32767 32767 32767 32767 76 32767 32767 32767 1 32767 32767 32767 31 32767 32767 32767 32767 32767 68 
32767 80 32767 32767 20 32767 67 13 40 93 32767 77 32767 32767 32767 32767 76 32767 92 3 1 32767 32767 32767 32767 32767 32767 32767 2 32 32767 32767 
32767 32767 32767 3 32767 32767 32767 32767 32767 32767 32767 99 32767 91 32767 32767 32767 92 32767 32767 32767 32767 53 32767 32767 32767 32767 95 55 24 32767 32767 
52 32767 32767 32767 32767 32767 32767 38 32767 78 32767 32767 32767 32767 32767 89 32767 3 32767 32767 32767 62 32767 32767 32767 32767 32767 32767 32767 39 32767 32767 
4 32767 68 32767 94 32767 32767 32767 5 32767 32767 32767 60 9 37 32767 32767 1 32767 32767 32767 32767 55 32767 32767 32767 32767 32767 32767 32767 32767 32767 
32767 69 98 32767 32767 38 32767 32767 77 32767 32767 73 32767 32767 78 32767 1 32767 32767 62 32767 32767 32767 2 32767 32767 4 21 82 32767 41 32767 
32767 32767 32767 80 32767 32767 37 20 32767 32767 32767 32767 32767 32767 32767 32767 32767 32767 53 32767 55 32767 32767 31 32767 32767 32767 42 23 32767 32767 32767 
5 32767 39 48 4 50 32767 32767 32767 32767 32767 32767 32767 32767 51 32767 32767 32767 32767 32767 32767 2 31 32767 52 32767 32767 32767 32767 4 32767 32767 
73 32767 32767 32767 32767 32767 3 32767 32767 13 1 32767 32767 32767 32767 32767 32767 32767 32767 32767 32767 32767 32767 52 32767 32767 28 17 32767 32767 32767 32767 
32767 32767 38 39 32767 32767 32767 55 32767 32767 32767 32767 60 14 32767 32767 31 32767 32767 32767 32767 32767 32767 32767 32767 32767 32767 32767 32767 79 32767 71 
32767 32767 78 32767 32767 15 3 35 32767 32767 32767 66 32767 30 94 32767 32767 32767 32767 32767 32767 4 32767 32767 28 32767 32767 32767 32767 32767 92 32767 
32767 41 17 32767 32767 32767 32767 32767 32767 26 75 32767 32 94 32767 62 32767 32767 95 32767 32767 21 42 32767 17 32767 32767 32767 32767 32767 32767 32767 
11 32767 32767 32767 32767 32767 32767 98 31 32767 32767 32767 94 32767 64 20 32767 2 55 32767 32767 82 23 32767 32767 32767 32767 32767 32767 32767 32767 32767 
32767 42 58 92 32767 40 32767 32767 32767 8 97 32767 32767 22 32767 32767 32767 32 24 39 32767 32767 32767 4 32767 79 32767 32767 32767 32767 32767 32767 
32767 32767 32767 36 32767 32767 75 6 32767 63 32767 32767 32767 97 45 32767 32767 32767 32767 32767 32767 41 32767 32767 32767 32767 92 32767 32767 32767 32767 81 
32767 48 32767 22 32767 28 53 58 32767 32767 32767 37 32767 32767 32767 32767 68 32767 32767 32767 32767 32767 32767 32767 32767 71 32767 32767 32767 32767 81 32767 
EOF